&CONTROL
   tstress          = .true.
   tprnfor          = .true.
   pseudo_dir       = '/home/kenobi/Workspaces/PHYS400/pseudopotentials'
/
&SYSTEM
   ecutwfc          = 40
   ecutrho          = 320
   occupations      = 'smearing'
   degauss          = 0.02
   smearing         = 'mv'
   ntyp             = 1
   nat              = 1
   ibrav            = 0
/
&ELECTRONS
   conv_thr         = 1e-06
/
&IONS
/
&CELL
/
&FCP
/
&RISM
/
ATOMIC_SPECIES
Cu 63.546 Cu.pbe-dn-kjpaw_psl.1.0.0.UPF

K_POINTS automatic
6 6 6  0 0 0

CELL_PARAMETERS angstrom
0.00000000000000 1.82906666666667 1.82906666666667
1.82906666666667 0.00000000000000 1.82906666666667
1.82906666666667 1.82906666666667 0.00000000000000

ATOMIC_POSITIONS angstrom
Cu 0.0000000000 0.0000000000 0.0000000000  

