&CONTROL
   tstress          = .true.
   tprnfor          = .true.
   pseudo_dir       = '/home/kenobi/Workspaces/PHYS400/pseudopotentials'
/
&SYSTEM
   ecutwfc          = 40
   ecutrho          = 320
   occupations      = 'smearing'
   degauss          = 0.02
   smearing         = 'mv'
   nspin            = 2
   starting_magnetization(1) = 0.0
   ntyp             = 1
   nat              = 1
   ibrav            = 0
/
&ELECTRONS
   conv_thr         = 1e-06
/
&IONS
/
&CELL
/
&FCP
/
&RISM
/
ATOMIC_SPECIES
Cr  51.9961 Cr.pbe-spn-kjpaw_psl.1.0.0.UPF

K_POINTS automatic
6 6 6  0 0 0

CELL_PARAMETERS angstrom
-1.43825632943107 1.42401616775353 1.42401616775353
1.42401616775353 -1.42401616775353 1.42401616775353
1.42401616775353 1.42401616775353 -1.42401616775353

ATOMIC_POSITIONS angstrom
Cr  0.0000000000 0.0000000000 0.0000000000  

